(define-fun |0_dst-port| () Int
  0)
(define-fun |0__A_GigabitEthernet0/1_OUTBOUND_SOFTAdd| () Bool
  true)
(define-fun |0__A_GigabitEthernet0/4_INBOUND_SOFTAdd| () Bool
  true)
(define-fun |0__B_GigabitEthernet0/3_OUTBOUND_SOFTAdd| () Bool
  true)
(define-fun |0__B_GigabitEthernet0/3_INBOUND_SOFTAdd| () Bool
  true)
(define-fun |0__B_GigabitEthernet0/1_INBOUND_SOFTAdd| () Bool
  true)
(define-fun |0__A_GigabitEthernet0/4_OUTBOUND_SOFTAdd| () Bool
  true)
(define-fun |0_src-port| () Int
  0)
(define-fun |0__reachable-id_A| () Int
  2)
(define-fun |0__A_GigabitEthernet0/3_INBOUND_SOFTAdd| () Bool
  true)
(define-fun |0_DATA-FORWARDING_A_GigabitEthernet0/1| () Bool
  true)
(define-fun |0_DATA-FORWARDING_B_GigabitEthernet0/1| () Bool
  false)
(define-fun |0__A_GigabitEthernet0/3_OUTBOUND_SOFTAdd| () Bool
  true)
(define-fun |0_ip-protocol| () Int
  0)
(define-fun |0__A_GigabitEthernet0/1_INBOUND_SOFTAdd| () Bool
  true)
(define-fun |0_icmp-code| () Int
  0)
(define-fun |0__B_GigabitEthernet0/1_OUTBOUND_SOFTAdd| () Bool
  true)
(define-fun |0_icmp-type| () Int
  0)
(define-fun |0_B_OVERALL_BEST_None_metric| () Int
  0)
(define-fun |0_B_CONNECTED_IMPORT_GigabitEthernet0/3_prefixLength| () Int
  8)
(define-fun |0__reachable_B| () Bool
  true)
(define-fun |0__reachable_A| () Bool
  true)
(define-fun |0__reachable-id_B| () Int
  1)
(define-fun |0_src-ip| () (_ BitVec 32)
  #x69000104)
(define-fun |0_dst-ip| () (_ BitVec 32)
  #x6a000203)
(define-fun |0_A_OVERALL_BEST_None_metric| () Int
  0)
(define-fun |0_A_OVERALL_BEST_None_prefixLength| () Int
  0)
(define-fun |0_DATA-FORWARDING_B_GigabitEthernet0/3| () Bool
  false)
(define-fun |B-StaticRouteAdd-B,GigabitEthernet0/1 --> A,GigabitEthernet0/1| () Bool
  false)
(define-fun |A-StaticRouteAdd-A,GigabitEthernet0/1 --> B,GigabitEthernet0/1| () Bool
  true)
(define-fun |0_DATA-FORWARDING_A_GigabitEthernet0/4| () Bool
  false)
(define-fun |0_DATA-FORWARDING_A_GigabitEthernet0/3| () Bool
  false)
(define-fun |0_CONTROL-FORWARDING_B_GigabitEthernet0/3| () Bool
  false)
(define-fun |0_CONTROL-FORWARDING_B_GigabitEthernet0/1| () Bool
  false)
(define-fun |0_CONTROL-FORWARDING_A_GigabitEthernet0/1| () Bool
  false)
(define-fun |0_CONTROL-FORWARDING_A_GigabitEthernet0/4| () Bool
  false)
(define-fun |0_CONTROL-FORWARDING_A_GigabitEthernet0/3| () Bool
  false)
(define-fun |0_A_OVERALL_BEST_None_permitted| () Bool
  false)
(define-fun |0_B_CONNECTED_IMPORT_GigabitEthernet0/3_choice| () Bool
  true)
(define-fun |0_B_OVERALL_BEST_None_permitted| () Bool
  true)
(define-fun |0_B_OVERALL_BEST_None_prefixLength| () Int
  8)
(define-fun |0_B_CONNECTED_IMPORT_GigabitEthernet0/3_permitted| () Bool
  true)
(define-fun |0_FAILED-EDGE_A_GigabitEthernet0/4| () Int
  0)
(define-fun |0_FAILED-EDGE_B_GigabitEthernet0/3| () Int
  0)
(define-fun |0_FAILED-EDGE_A_GigabitEthernet0/3| () Int
  0)
(define-fun |0_FAILED-EDGE_A_B| () Int
  0)